LatticeConstant  20.0 Ang
%block LatticeVectors
    1.000000000000000     0.000000000000000     0.000000000000000
    0.000000000000000     1.000000000000000     0.000000000000000
    0.000000000000000     0.000000000000000     1.000000000000000
%endblock LatticeVectors

%block PAO.Basis # QZDPQ-8.5
O 3
n=2 0 4 E 50. 7.5
    8.0 5.0 3.5 2.0
n=2 1 4 E 10. 8.3
    8.5 5.0 3.5 2.0
n=3 2 2 E 40. 8.3 Q 6.
    8.5 2.2
H 2
n=1 0 4 E 50. 8.3
    8.5 5.0 3.5 2.0
n=2 1 2 E 20. 7.8 Q 3.5
    8.0 2.0
%endblock PAO.Basis

XC.authors  VV
XC.functional  vdW
#XC.authors  PBE
#XC.functional  GGA
DM.UseSaveDM True
SCF.Mixer.Method Pulay
SCF.Mixer.Weight 0.3
SCF.Mixer.History 7
SCF.DM.Tolerance 0.0002
SCF.H.Converge F
SCF.EDM.Converge F
atomiccoordinatesformat Ang
%block atomiccoordinatesandatomicspecies
  0.0000	0.0000	0.1173  1 
  0.0000	0.7572	-0.4692 2
  0.0000	-0.7572	-0.4692 2
%endblock atomiccoordinatesandatomicspecies
systemname siesta
systemlabel siesta
numberofspecies 2
numberofatoms 3
%block chemicalspecieslabel
    1 8 O
    2 1 H
%endblock chemicalspecieslabel
MeshCutoff  300 Ry
%block Grid.CellSampling
0.5 0.5 0.5
%endblock Grid.CellSampling
