AtomicCoordinatesFormat   ScaledByLatticeVectors 
%block AtomicCoordinatesAndAtomicSpecies 
0.000007      0.334718     0.199799   2
0.665252      0.000010     0.199780   2
0.334714      0.665261     0.199791   2
0.334760      0.999976     0.699786   2
0.999980      0.665239     0.699800   2
0.665240      0.334755     0.699799   2
0.544461      0.000006     0.019584   2
-0.000011     0.455520     0.019605   2
0.455505      0.544480     0.019594   2
0.455543      0.999980     0.519584   2
0.999998      0.544446     0.519600   2
0.544461      0.455524     0.519592   2
0.332240      0.879481     0.984486   2
0.211731      1.120507     0.984481   2
0.879462      0.788265     0.984489   2
0.788248      0.332255     0.984498   2
0.667731      0.211748     0.984486   2
0.120526      0.211703     0.484497   2
0.667762      1.120506     0.484488   2
0.788272      0.879477     0.484480   2
0.211722      0.667743     0.484495   2
0.332240      0.788252     0.484486   2
-0.120503     0.332222     0.484499   2
1.120486      0.667750     0.984491   2
0.000009      0.331330     0.061616   1
0.668637      0.000012     0.061595   1
0.331326      0.668660     0.061608   1
0.331370      0.999972     0.561601   1
0.668637      0.331348     0.561616   1
0.335676      0.999992     0.936746   1
0.664294      0.335703     0.936768   1
0.000012      0.335655     0.436771   1
0.664333      0.999995     0.436740   1
0.335670      0.664304     0.436760   1
0.999979      0.668634     0.561617   1
0.999974      0.664306     0.936770   1
%endblock AtomicCoordinatesAndAtomicSpecies 
