AtomicCoordinatesFormat   Ang
%block AtomicCoordinatesAndAtomicSpecies 
       1.28503666       2.22554087       1.44540888  2
       5.10784528       0.00006649       1.44527143  2
       5.12387311       4.42332215       1.44535100  2
       6.40919769       6.64884307       5.06247227  2
       2.55370303       4.42317587       5.06257355  2
       6.39283971       2.22578688       5.06256632  2
       4.18039626       0.00003989       0.14167682  2
       1.74865752       3.02875369       0.14182874  2
       5.58762833       3.62024896       0.14174917  2
       7.33658529       6.64886967       3.75883426  2
       2.09011672       3.62002289       3.75895001  2
       5.92913055       3.02878028       3.75889214  2
       5.92726864       5.84767150       7.12208172  2
       5.92729935       7.45025401       7.12204555  2
       2.10066246       5.24117607       7.12210342  2
       7.32769800       2.20916437       7.12216853  2
       5.93974155       1.40791301       7.12208172  2
       1.73812714       1.40761381       3.50500386  2
       1.75070292       7.45024736       3.50493875  2
       1.75066837       5.84764490       3.50488087  2
       4.18906856       4.43982497       3.50498939  2
       5.57704037       5.24108963       3.50492428  2
       0.35017836       2.20894496       3.50501832  2
       3.48858820       4.43987152       7.12211789  2
       1.27204548       2.20301405       0.44574955  1
       5.13384300       0.00007979       0.44559762  1
       5.11090880       4.44592211       0.44569167  1
       6.38315391       6.64881647       4.06279847  1
       6.40584241       2.20313373       4.06290698  1
       6.41629217       6.64894945       6.77671553  1
       6.38921569       2.23209014       6.77687468  1
       1.28867219       2.23177098       3.15973894  1
       1.26173314       6.64896940       3.15951468  1
       5.12753936       4.41695905       3.15965937  1
       2.56672876       4.44574923       4.06291422  1
       2.55007518       4.41697235       6.77688915  1
       5.12403666       8.87454087       1.44540888  2
       1.26884528       6.64906649       1.44527143  2
       1.28487311      11.07232215       1.44535100  2
       2.57019769      13.29784307       5.06247227  2
       6.39270303      11.07217587       5.06257355  2
       2.55383971       8.87478688       5.06256632  2
       0.34139626       6.64903989       0.14167682  2
       5.58765752       9.67775369       0.14182874  2
       1.74862833      10.26924896       0.14174917  2
       3.49758529      13.29786967       3.75883426  2
       5.92911672      10.26902289       3.75895001  2
       2.09013055       9.67778028       3.75889214  2
       2.08826864      12.49667150       7.12208172  2
       2.08829935       0.80125401       7.12204555  2
       5.93966246      11.89017607       7.12210342  2
       3.48869800       8.85816437       7.12216853  2
       2.10074155       8.05691301       7.12208172  2
       5.57712714       8.05661381       3.50500386  2
       5.58970292       0.80124736       3.50493875  2
       5.58966837      12.49664490       3.50488087  2
       0.35006856      11.08882497       3.50498939  2
       1.73804037      11.89008963       3.50492428  2
       4.18917836       8.85794496       3.50501832  2
       7.32758820      11.08887152       7.12211789  2
       5.11104548       8.85201405       0.44574955  1
       1.29484300       6.64907979       0.44559762  1
       1.27190880      11.09492211       0.44569167  1
       2.54415391      13.29781647       4.06279847  1
       2.56684241       8.85213373       4.06290698  1
       2.57729217      13.29794945       6.77671553  1
       2.55021569       8.88109014       6.77687468  1
       5.12767219       8.88077098       3.15973894  1
       5.10073314      13.29796940       3.15951468  1
       1.28853936      11.06595905       3.15965937  1
       6.40572876      11.09474923       4.06291422  1
       6.38907518      11.06597235       6.77688915  1
%endblock AtomicCoordinatesAndAtomicSpecies 
